1	15	1	8	29	100	0	0	0	0	0	0
2000	1	0	0	0	0	0	0	0	0	0	0
250	1	0	181.83	0.16	1	0	0	0	0	0	0
250	1	0	181.83	0.16	1	0	0	0	0	0	0
250	1	0	181.83	0.16	1	0	0	0	0	0	0
250	1	0	181.83	0.16	1	0	0	0	0	0	0
250	1	0	181.83	0.16	1	0	0	0	0	0	0
250	1	0	181.83	0.16	1	0	0	0	0	0	0
250	1	0	181.83	0.16	1	0	0	0	0	0	0
250	1	0	181.83	0.16	1	0	0	0	0	0	0
250	1	0	181.83	0.16	1	0	0	0	0	0	0
250	1	0	181.83	0.16	1	0	0	0	0	0	0
250	1	0	181.83	0.16	1	0	0	0	0	0	0
250	1	0	181.83	0.16	1	0	0	0	0	0	0
250	1	0	181.83	0.16	1	0	0	0	0	0	0
250	1	0	181.83	0.16	1	0	0	0	0	0	0
250	1	0	181.83	0.16	1	0	0	0	0	0	0
50	150	0	0	0	0	1000	0	0	99999	0	0
25	25	0	0	0	0	1000	0	0	99999	0	0
50	25	0	0	0	0	1000	0	0	99999	0	0
75	25	0	0	0	0	1000	0	0	99999	0	0
25	50	0	0	0	0	1000	0	0	99999	0	0
75	50	0	0	0	0	1000	0	0	99999	0	0
25	75	0	0	0	0	1000	0	0	99999	0	0
50	75	0	0	0	0	1000	0	0	99999	0	0
75	75	0	0	0	0	1000	0	0	99999	0	0
25	25	0	0	0	0	1000	0	0	0	0	0
50	25	0	0	0	0	1000	0	0	0	0	0
75	25	0	0	0	0	1000	0	0	0	0	0
25	50	0	0	0	0	1000	0	0	0	0	0
75	50	0	0	0	0	1000	0	0	0	0	0
25	75	0	0	0	0	1000	0	0	0	0	0
50	75	0	0	0	0	1000	0	0	0	0	0
75	75	0	0	0	0	1000	0	0	0	0	0
35      35      0       0       0       0       230     0       0       0       0       0
61      37      0       0       0       0       230     0       0       0       0       0
74      39      0       0       0       0       230     0       0       0       0       0
47      57      0       0       0       0       230     0       0       0       0       0
57      65      0       0       0       0       230     0       0       0       0       0
29      59      0       0       0       0       230     0       0       0       0       0
34      71      0       0       0       0       230     0       0       0       0       0
22      58      0       0       0       0       230     0       0       0       0       0
7	61	0	0	0	0	1000	0	0	0	0	0
18	41	0	0	0	0	1000	0	0	0	0	0
5	39	0	0	0	0	1000	0	0	0	0	0
14	20	0	0	0	0	1000	0	0	0	0	0
0	26	0	0	0	0	1000	0	0	0	0	0
24	25	0	0	0	0	1000	0	0	0	0	0
26	6	0	0	0	0	1000	0	0	0	0	0
34	20	0	0	0	0	1000	0	0	0	0	0
41	5	0	0	0	0	1000	0	0	0	0	0
50	9	0	0	0	0	1000	0	0	0	0	0
61	14	0	0	0	0	1000	0	0	0	0	0
62	21	0	0	0	0	1000	0	0	0	0	0
74	30	0	0	0	0	1000	0	0	0	0	0
41	49	10	8	2	132	345	10	0	0	0	0
35	17	7	3	4	134	597	10	0	0	0	0
55	45	13	11	2	382	1083	10	0	0	0	0
55	20	19	7	12	817	999	10	0	0	0	0
15	30	26	13	13	137	651	10	0	0	0	0
25	30	3	3	0	507	989	10	0	0	0	0
20	50	5	2	3	138	326	10	0	0	0	0
10	43	9	2	7	143	511	10	0	0	0	0
55	60	16	15	1	525	965	10	0	0	0	0
30	60	16	8	8	605	903	10	0	0	0	0
20	65	12	4	8	700	1054	10	0	0	0	0
50	35	19	13	6	885	1091	10	0	0	0	0
30	25	23	19	4	128	482	10	0	0	0	0
15	10	20	13	7	158	552	10	0	0	0	0
30	5	8	1	7	813	1075	10	0	0	0	0
10	20	19	10	9	501	923	10	0	0	0	0
5	30	2	0	2	775	1061	10	0	0	0	0
20	40	12	6	6	417	731	10	0	0	0	0
15	60	17	4	13	219	609	10	0	0	0	0
45	65	9	6	3	725	955	10	0	0	0	0
45	20	11	5	6	135	589	10	0	0	0	0
45	10	18	4	14	723	1079	10	0	0	0	0
55	5	29	3	26	153	741	10	0	0	0	0
65	35	3	2	1	762	1076	10	0	0	0	0
65	20	6	2	4	150	474	10	0	0	0	0
45	30	17	11	6	135	483	10	0	0	0	0
35	40	16	14	2	213	795	10	0	0	0	0
41	37	16	14	2	331	753	10	0	0	0	0
64	42	9	6	3	755	1076	10	0	0	0	0
40	60	21	14	7	538	842	10	0	0	0	0
31	52	27	16	11	340	1088	10	0	0	0	0
35	69	23	12	11	428	778	10	0	0	0	0
53	52	11	11	0	191	699	10	0	0	0	0
65	55	14	12	2	153	540	10	0	0	0	0
63	65	8	8	0	520	1064	10	0	0	0	0
2	60	5	0	5	693	1064	10	0	0	0	0
20	20	8	8	0	412	998	10	0	0	0	0
5	5	16	16	0	548	1004	10	0	0	0	0
60	12	31	6	25	229	727	10	0	0	0	0
40	25	9	6	3	768	1026	10	0	0	0	0
42	7	5	1	4	686	1077	10	0	0	0	0
24	12	5	3	2	142	343	10	0	0	0	0
23	3	7	1	6	296	876	10	0	0	0	0
11	14	18	14	4	556	968	10	0	0	0	0
6	38	16	3	13	482	1076	10	0	0	0	0
2	48	1	0	1	152	566	10	0	0	0	0
8	56	27	4	23	583	1031	10	0	0	0	0
13	52	36	9	27	390	818	10	0	0	0	0
6	68	30	3	27	699	1062	10	0	0	0	0
47	47	13	13	0	549	789	10	0	0	0	0
49	58	10	8	2	686	1079	10	0	0	0	0
27	43	9	6	3	175	681	10	0	0	0	0
37	31	14	12	2	377	759	10	0	0	0	0
57	29	18	9	9	139	495	10	0	0	0	0
63	23	2	1	1	343	899	10	0	0	0	0
53	12	6	1	5	596	1076	10	0	0	0	0
32	12	7	3	4	476	814	10	0	0	0	0
36	26	18	13	5	404	742	10	0	0	0	0
21	24	28	25	3	134	492	10	0	0	0	0
17	34	3	2	1	570	972	10	0	0	0	0
12	24	13	7	6	177	935	10	0	0	0	0
24	58	19	8	11	714	1080	10	0	0	0	0
27	69	10	4	6	540	1071	10	0	0	0	0
15	77	9	2	7	745	1027	10	0	0	0	0
62	77	20	16	4	166	446	10	0	0	0	0
49	73	25	17	8	558	1028	10	0	0	0	0
67	5	25	2	23	160	549	10	0	0	0	0
56	39	36	25	11	278	738	10	0	0	0	0
37	47	6	5	1	462	830	10	0	0	0	0
37	56	5	3	2	138	402	10	0	0	0	0
57	68	15	13	2	761	977	10	0	0	0	0
47	16	25	9	16	139	599	10	0	0	0	0
44	17	9	3	6	881	1085	10	0	0	0	0
46	13	8	2	6	492	744	10	0	0	0	0
49	11	18	4	14	569	835	10	0	0	0	0
49	42	13	11	2	209	595	10	0	0	0	0
53	43	14	11	3	136	557	10	0	0	0	0
61	52	3	3	0	148	736	10	0	0	0	0
57	48	23	19	4	142	505	10	0	0	0	0
56	37	6	4	2	138	657	10	0	0	0	0
55	54	26	26	0	144	454	10	0	0	0	0
15	47	16	5	11	720	1012	10	0	0	0	0
14	37	11	4	7	528	926	10	0	0	0	0
11	31	7	2	5	292	702	10	0	0	0	0
16	22	41	30	11	442	1082	10	0	0	0	0
4	18	35	8	27	920	1070	10	0	0	0	0
28	18	26	17	9	651	679	10	0	0	0	0
26	52	9	5	4	281	733	10	0	0	0	0
26	35	15	11	4	512	972	10	0	0	0	0
31	67	3	1	2	558	842	10	0	0	0	0
15	19	1	1	0	411	901	10	0	0	0	0
22	22	2	2	0	140	714	10	0	0	0	0
18	24	22	17	5	628	812	10	0	0	0	0
26	27	27	26	1	550	858	10	0	0	0	0
25	24	20	19	1	131	656	10	0	0	0	0
22	27	11	9	2	924	1090	10	0	0	0	0
25	21	12	10	2	640	794	10	0	0	0	0
19	21	10	9	1	431	767	10	0	0	0	0
20	26	9	7	2	144	382	10	0	0	0	0
18	18	17	17	0	249	249	10	0	0	0	0
